# Solution for model Maximum happiness
# Objective value = 2.3799489999999996e+03
student_indicator[0,0] 0
student_indicator[0,1] 0
student_indicator[0,2] 0
student_indicator[0,3] 0
student_indicator[0,4] 5.5511151231257827e-17
student_indicator[0,5] 0
student_indicator[0,6] 0
student_indicator[0,7] 0
student_indicator[0,8] -5.5511151231257827e-17
student_indicator[0,9] -1.5265566588595902e-16
student_indicator[0,10] -2.7755575615628914e-17
student_indicator[0,11] 0
student_indicator[0,12] 0
student_indicator[0,13] 0
student_indicator[0,14] 0
student_indicator[0,15] 3.3306690738754696e-16
student_indicator[0,16] 1
student_indicator[0,17] 0
student_indicator[0,18] 0
student_indicator[0,19] -1.8041124150158794e-16
student_indicator[1,0] 0
student_indicator[1,1] 0
student_indicator[1,2] 0
student_indicator[1,3] 0
student_indicator[1,4] 1
student_indicator[1,5] 0
student_indicator[1,6] 0
student_indicator[1,7] 4.0245584642661925e-16
student_indicator[1,8] 0
student_indicator[1,9] 0
student_indicator[1,10] 0
student_indicator[1,11] 0
student_indicator[1,12] 0
student_indicator[1,13] -6.9388939039072284e-17
student_indicator[1,14] 1.1102230246251565e-16
student_indicator[1,15] 6.9388939039072284e-17
student_indicator[1,16] 0
student_indicator[1,17] 0
student_indicator[1,18] 0
student_indicator[1,19] 1.8041124150158794e-16
student_indicator[2,0] 0
student_indicator[2,1] 0
student_indicator[2,2] 0
student_indicator[2,3] 0
student_indicator[2,4] 0
student_indicator[2,5] 0
student_indicator[2,6] 4.4408920985006262e-16
student_indicator[2,7] 0
student_indicator[2,8] 0
student_indicator[2,9] 0
student_indicator[2,10] 0
student_indicator[2,11] 0
student_indicator[2,12] 1
student_indicator[2,13] 0
student_indicator[2,14] 0
student_indicator[2,15] -4.4408920985006262e-16
student_indicator[2,16] 0
student_indicator[2,17] 0
student_indicator[2,18] 0
student_indicator[2,19] 0
student_indicator[3,0] 0
student_indicator[3,1] 0
student_indicator[3,2] 0
student_indicator[3,3] 0
student_indicator[3,4] 1
student_indicator[3,5] 0
student_indicator[3,6] 0
student_indicator[3,7] 0
student_indicator[3,8] 0
student_indicator[3,9] 0
student_indicator[3,10] 0
student_indicator[3,11] 0
student_indicator[3,12] 0
student_indicator[3,13] -6.9388939039072284e-17
student_indicator[3,14] 0
student_indicator[3,15] 6.9388939039072284e-17
student_indicator[3,16] 0
student_indicator[3,17] 0
student_indicator[3,18] 0
student_indicator[3,19] 1.8041124150158794e-16
student_indicator[4,0] 0
student_indicator[4,1] 0
student_indicator[4,2] 0
student_indicator[4,3] 0
student_indicator[4,4] 1
student_indicator[4,5] 0
student_indicator[4,6] 0
student_indicator[4,7] 0
student_indicator[4,8] 0
student_indicator[4,9] 0
student_indicator[4,10] 0
student_indicator[4,11] 0
student_indicator[4,12] 0
student_indicator[4,13] -6.9388939039072284e-17
student_indicator[4,14] 0
student_indicator[4,15] 6.9388939039072284e-17
student_indicator[4,16] 0
student_indicator[4,17] 0
student_indicator[4,18] 0
student_indicator[4,19] 1.8041124150158794e-16
student_indicator[5,0] 0
student_indicator[5,1] 0
student_indicator[5,2] 0
student_indicator[5,3] -1.3877787807814457e-17
student_indicator[5,4] 6.9388939039072284e-17
student_indicator[5,5] 0
student_indicator[5,6] 0
student_indicator[5,7] 0
student_indicator[5,8] 0
student_indicator[5,9] 0
student_indicator[5,10] 0
student_indicator[5,11] 0
student_indicator[5,12] 7.7021722333370235e-16
student_indicator[5,13] -6.9388939039072284e-17
student_indicator[5,14] -4.7184478546569153e-16
student_indicator[5,15] 0
student_indicator[5,16] -6.9388939039072284e-18
student_indicator[5,17] 1
student_indicator[5,18] 0
student_indicator[5,19] 0
student_indicator[6,0] 0
student_indicator[6,1] 0
student_indicator[6,2] 1
student_indicator[6,3] 0
student_indicator[6,4] 0
student_indicator[6,5] 0
student_indicator[6,6] 0
student_indicator[6,7] 0
student_indicator[6,8] 0
student_indicator[6,9] 0
student_indicator[6,10] 0
student_indicator[6,11] 0
student_indicator[6,12] 0
student_indicator[6,13] 0
student_indicator[6,14] 0
student_indicator[6,15] 0
student_indicator[6,16] 0
student_indicator[6,17] 0
student_indicator[6,18] 0
student_indicator[6,19] 0
student_indicator[7,0] 0
student_indicator[7,1] 0
student_indicator[7,2] 0
student_indicator[7,3] 0
student_indicator[7,4] 5.5511151231257827e-17
student_indicator[7,5] 0
student_indicator[7,6] 0
student_indicator[7,7] 0
student_indicator[7,8] -5.5511151231257827e-17
student_indicator[7,9] -1.5265566588595902e-16
student_indicator[7,10] -2.7755575615628914e-17
student_indicator[7,11] 0
student_indicator[7,12] 0
student_indicator[7,13] 0
student_indicator[7,14] 0
student_indicator[7,15] 3.3306690738754696e-16
student_indicator[7,16] 1
student_indicator[7,17] 0
student_indicator[7,18] 0
student_indicator[7,19] -1.8041124150158794e-16
student_indicator[8,0] 0
student_indicator[8,1] 0
student_indicator[8,2] 0
student_indicator[8,3] 0
student_indicator[8,4] 0
student_indicator[8,5] -2.2204460492503131e-16
student_indicator[8,6] 0
student_indicator[8,7] 0
student_indicator[8,8] 0
student_indicator[8,9] 0
student_indicator[8,10] 0
student_indicator[8,11] 0
student_indicator[8,12] 3.7470027081099033e-16
student_indicator[8,13] 0
student_indicator[8,14] 0
student_indicator[8,15] -4.4408920985006262e-16
student_indicator[8,16] 0
student_indicator[8,17] 1
student_indicator[8,18] 0
student_indicator[8,19] 1.8041124150158794e-16
student_indicator[9,0] 0
student_indicator[9,1] 0
student_indicator[9,2] 0
student_indicator[9,3] 0
student_indicator[9,4] 0
student_indicator[9,5] 0
student_indicator[9,6] 0
student_indicator[9,7] 0
student_indicator[9,8] 0
student_indicator[9,9] 0
student_indicator[9,10] 0
student_indicator[9,11] 0
student_indicator[9,12] 0
student_indicator[9,13] 0
student_indicator[9,14] 0
student_indicator[9,15] 0
student_indicator[9,16] 0
student_indicator[9,17] 1
student_indicator[9,18] 0
student_indicator[9,19] 0
student_indicator[10,0] 0
student_indicator[10,1] 0
student_indicator[10,2] 0
student_indicator[10,3] 0
student_indicator[10,4] 5.5511151231257827e-17
student_indicator[10,5] 0
student_indicator[10,6] 0
student_indicator[10,7] 0
student_indicator[10,8] -5.5511151231257827e-17
student_indicator[10,9] -4.1633363423443370e-17
student_indicator[10,10] -2.7755575615628914e-17
student_indicator[10,11] 0
student_indicator[10,12] 0
student_indicator[10,13] 0
student_indicator[10,14] 0
student_indicator[10,15] 3.3306690738754696e-16
student_indicator[10,16] 1
student_indicator[10,17] 0
student_indicator[10,18] 0
student_indicator[10,19] -1.8041124150158794e-16
student_indicator[11,0] 0
student_indicator[11,1] 0
student_indicator[11,2] 1
student_indicator[11,3] 0
student_indicator[11,4] 6.9388939039072284e-17
student_indicator[11,5] 0
student_indicator[11,6] 0
student_indicator[11,7] 0
student_indicator[11,8] 0
student_indicator[11,9] 0
student_indicator[11,10] 0
student_indicator[11,11] 0
student_indicator[11,12] 3.7470027081099033e-16
student_indicator[11,13] -6.9388939039072284e-17
student_indicator[11,14] 8.8817841970012523e-16
student_indicator[11,15] 0
student_indicator[11,16] 0
student_indicator[11,17] 0
student_indicator[11,18] -7.7715611723760958e-16
student_indicator[11,19] 0
student_indicator[12,0] 0
student_indicator[12,1] 0
student_indicator[12,2] 0
student_indicator[12,3] 0
student_indicator[12,4] 0
student_indicator[12,5] 0
student_indicator[12,6] 0
student_indicator[12,7] 0
student_indicator[12,8] 0
student_indicator[12,9] -1.5265566588595902e-16
student_indicator[12,10] -2.7755575615628914e-17
student_indicator[12,11] 0
student_indicator[12,12] 0
student_indicator[12,13] 0
student_indicator[12,14] 0
student_indicator[12,15] 3.3306690738754696e-16
student_indicator[12,16] 1
student_indicator[12,17] 0
student_indicator[12,18] 0
student_indicator[12,19] -1.8041124150158794e-16
student_indicator[13,0] 0
student_indicator[13,1] 0
student_indicator[13,2] 0
student_indicator[13,3] 0
student_indicator[13,4] 0
student_indicator[13,5] 0
student_indicator[13,6] 0
student_indicator[13,7] 0
student_indicator[13,8] 0
student_indicator[13,9] 0
student_indicator[13,10] 0
student_indicator[13,11] 0
student_indicator[13,12] 0
student_indicator[13,13] 0
student_indicator[13,14] 1.1102230246251565e-16
student_indicator[13,15] -4.4408920985006262e-16
student_indicator[13,16] 0
student_indicator[13,17] 1
student_indicator[13,18] 0
student_indicator[13,19] 0
student_indicator[14,0] 0
student_indicator[14,1] 0
student_indicator[14,2] 0
student_indicator[14,3] 0
student_indicator[14,4] 0
student_indicator[14,5] 0
student_indicator[14,6] 0
student_indicator[14,7] 0
student_indicator[14,8] 0
student_indicator[14,9] 0
student_indicator[14,10] 0
student_indicator[14,11] 0
student_indicator[14,12] 1
student_indicator[14,13] 0
student_indicator[14,14] 0
student_indicator[14,15] 0
student_indicator[14,16] 0
student_indicator[14,17] 0
student_indicator[14,18] 0
student_indicator[14,19] 0
student_indicator[15,0] 0
student_indicator[15,1] 0
student_indicator[15,2] 0
student_indicator[15,3] 0
student_indicator[15,4] 1
student_indicator[15,5] 0
student_indicator[15,6] 0
student_indicator[15,7] 0
student_indicator[15,8] 0
student_indicator[15,9] 0
student_indicator[15,10] 0
student_indicator[15,11] 0
student_indicator[15,12] 0
student_indicator[15,13] 0
student_indicator[15,14] 0
student_indicator[15,15] 0
student_indicator[15,16] 0
student_indicator[15,17] 0
student_indicator[15,18] 0
student_indicator[15,19] 0
student_indicator[16,0] 0
student_indicator[16,1] 0
student_indicator[16,2] 1
student_indicator[16,3] 0
student_indicator[16,4] 0
student_indicator[16,5] 0
student_indicator[16,6] 0
student_indicator[16,7] 0
student_indicator[16,8] 5.5511151231257827e-17
student_indicator[16,9] 0
student_indicator[16,10] 0
student_indicator[16,11] 0
student_indicator[16,12] 3.7470027081099033e-16
student_indicator[16,13] -6.9388939039072284e-17
student_indicator[16,14] 0
student_indicator[16,15] 0
student_indicator[16,16] 0
student_indicator[16,17] 0
student_indicator[16,18] 0
student_indicator[16,19] 0
student_indicator[17,0] 0
student_indicator[17,1] 0
student_indicator[17,2] 0
student_indicator[17,3] 0
student_indicator[17,4] 0
student_indicator[17,5] -2.2204460492503131e-16
student_indicator[17,6] 0
student_indicator[17,7] 0
student_indicator[17,8] 0
student_indicator[17,9] 0
student_indicator[17,10] 0
student_indicator[17,11] 0
student_indicator[17,12] 1
student_indicator[17,13] 0
student_indicator[17,14] 6.6613381477509392e-16
student_indicator[17,15] -4.4408920985006262e-16
student_indicator[17,16] 0
student_indicator[17,17] 0
student_indicator[17,18] 0
student_indicator[17,19] 0
student_indicator[18,0] 0
student_indicator[18,1] 0
student_indicator[18,2] 1
student_indicator[18,3] 0
student_indicator[18,4] 0
student_indicator[18,5] 0
student_indicator[18,6] 0
student_indicator[18,7] 0
student_indicator[18,8] 0
student_indicator[18,9] 0
student_indicator[18,10] 0
student_indicator[18,11] 0
student_indicator[18,12] 3.7470027081099033e-16
student_indicator[18,13] -6.9388939039072284e-17
student_indicator[18,14] 0
student_indicator[18,15] 6.9388939039072284e-17
student_indicator[18,16] 0
student_indicator[18,17] 2.7755575615628914e-17
student_indicator[18,18] 0
student_indicator[18,19] 0
student_indicator[19,0] 0
student_indicator[19,1] 0
student_indicator[19,2] 0
student_indicator[19,3] 0
student_indicator[19,4] 0
student_indicator[19,5] 0
student_indicator[19,6] 0
student_indicator[19,7] 0
student_indicator[19,8] 0
student_indicator[19,9] 0
student_indicator[19,10] 0
student_indicator[19,11] 0
student_indicator[19,12] 1
student_indicator[19,13] 0
student_indicator[19,14] 0
student_indicator[19,15] 0
student_indicator[19,16] 0
student_indicator[19,17] 0
student_indicator[19,18] 0
student_indicator[19,19] 0
room_indicator[0] 0
room_indicator[1] 0
room_indicator[2] 1
room_indicator[3] 0
room_indicator[4] 1
room_indicator[5] 0
room_indicator[6] 1.6653345369377348e-16
room_indicator[7] 1.4745149545802860e-17
room_indicator[8] 0
room_indicator[9] -4.6837533851373792e-17
room_indicator[10] 0
room_indicator[11] 0
room_indicator[12] 1
room_indicator[13] -2.42861286636753e-17
room_indicator[14] 0
room_indicator[15] 0
room_indicator[16] 1
room_indicator[17] 1
room_indicator[18] -3.8163916471489756e-17
room_indicator[19] 0
room_stress[0] 0
room_stress[1] -1.7763568394002505e-15
room_stress[2] 1.4578999999999999e+01
room_stress[3] -3.5527136788005009e-15
room_stress[4] 1.6401000000000007e+01
room_stress[5] 0
room_stress[6] 1.4210854715202004e-14
room_stress[7] 7.4384942649885488e-15
room_stress[8] -2.1316282072803006e-14
room_stress[9] -8.1046280797636427e-15
room_stress[10] 0
room_stress[11] 0
room_stress[12] 1.4731000000000160e+01
room_stress[13] -2.2026824808563106e-13
room_stress[14] 0
room_stress[15] -8.5265128291212022e-14
room_stress[16] 1.6102999999999895e+01
room_stress[17] 1.5295999999999992e+01
room_stress[18] -2.4868995751603507e-14
room_stress[19] 2.4868995751603507e-14
